# Objective value = 46
WA1n 0
WA1p 0
WA2n 0
WA2p 1
WB1n 0
WB1p 0
WB2n 0
WB2p 1
WC1n 0
WC1p 1
WD1n 0
WD1p 1
WE1n 2
WE1p 0
WE2n 1
WE2p 0
WF1n 0
WF1p 2
WF2n 0
WF2p 1
WG1n 6
WG1p 0
WH1n 0
WH1p 6
WI1n 14
WI1p 0
WI2n 1
WI2p 0
WT1n 2
WT1p 0
WT2n 1
WT2p 0
5 7
a 0
b 1
c 0
d 1
e 1
f 1
g 0
h 0
i 1
j 1
k 0
l 1
m 0
n 0
o 0
p 0
